NAME : kroE100Preorder.7615.tour
COMMENT : Length = 7615
COMMENT : Found by LKH [Keld Helsgaun] Thu Apr 23 21:09:52 2020
TYPE : TOUR
DIMENSION : 100
TOUR_SECTION
1
74
7
21
69
51
98
59
95
36
28
23
15
20
56
49
62
64
58
32
76
12
63
88
35
40
84
17
99
45
25
54
97
50
60
10
80
57
9
13
75
41
87
67
27
92
82
4
2
11
96
85
77
37
70
6
34
53
78
100
29
24
18
94
19
43
86
22
39
91
55
93
30
66
31
65
8
5
42
90
48
33
38
68
72
44
52
14
61
89
81
71
73
16
79
26
46
3
47
83
-1
EOF
